Route #1: 6 51 17
Route #2: 40 12 26
Route #3: 7 53 14
Route #4: 11 38
Route #5: 10 31 39
Route #6: 9 25 18
Route #7: 32 50 44
Route #8: 3 24 49 23 16
Route #9: 33 1 43
Route #10: 41 42 22 28
Route #11: 2 30 48
Route #12: 5 47 21
Route #13: 36 37 20 15 29
Route #14: 45 27 13 8
Route #15: 35 19 54 52
Route #16: 46 34
Route #17: 4
Cost 989